NAME : rc_201.3.7906068.tour
COMMENT : Length = 7906068
COMMENT : Found by LKH [Keld Helsgaun] Tue May  2 05:21:39 2017
TYPE : TOUR
DIMENSION : 32
TOUR_SECTION
1
13
15
16
6
18
3
31
23
28
10
11
25
8
29
20
26
27
7
9
19
4
30
21
14
12
17
2
5
22
32
24
-1
EOF
